p edge 50 139
e 0 6
e 0 11
e 0 12
e 0 13
e 0 18
e 0 34
e 0 37
e 1 2
e 1 7
e 1 16
e 1 44
e 1 46
e 2 19
e 2 28
e 3 9
e 3 12
e 3 25
e 3 27
e 3 28
e 3 40
e 3 41
e 3 44
e 4 5
e 4 19
e 4 29
e 4 35
e 4 40
e 5 23
e 5 39
e 5 41
e 5 46
e 6 8
e 6 24
e 6 25
e 6 37
e 6 38
e 6 39
e 7 39
e 7 46
e 8 18
e 8 27
e 8 39
e 8 43
e 8 45
e 9 12
e 9 16
e 9 28
e 9 32
e 9 37
e 9 42
e 9 49
e 10 15
e 10 19
e 10 34
e 10 41
e 11 18
e 11 20
e 11 24
e 11 35
e 11 44
e 11 46
e 12 38
e 13 15
e 13 17
e 13 19
e 13 25
e 13 48
e 13 49
e 14 25
e 14 33
e 14 41
e 14 44
e 15 17
e 15 20
e 15 22
e 15 25
e 15 40
e 16 24
e 16 37
e 16 40
e 17 20
e 18 22
e 18 28
e 18 35
e 18 48
e 19 20
e 19 35
e 19 37
e 19 40
e 19 41
e 19 46
e 20 29
e 20 44
e 21 28
e 21 45
e 22 27
e 22 43
e 23 25
e 23 36
e 23 43
e 23 45
e 24 41
e 24 49
e 25 31
e 25 32
e 25 39
e 25 40
e 26 32
e 26 44
e 27 29
e 27 35
e 27 38
e 27 39
e 27 42
e 27 46
e 27 47
e 28 31
e 28 45
e 28 49
e 29 40
e 29 47
e 30 34
e 31 35
e 32 36
e 32 45
e 33 35
e 34 39
e 36 46
e 37 43
e 38 40
e 39 43
e 39 48
e 40 44
e 40 46
e 41 45
e 42 44
e 42 47
e 43 46
e 47 49
